c NeuroCodeBench 2.0 CNF formula with verdict Sat
p cnf 5 15
2 5 -3 -1 0
4 1 -3 -5 0
2 5 1 -3 0
5 3 -2 -1 0
2 5 -1 0
3 4 -2 -5 0
-1 -3 0
3 4 -2 -1 0
1 0
4 5 0
2 4 3 -5 0
1 4 3 -2 0
3 4 -5 0
5 -4 -3 0
5 3 -2 -4 0
